instances/knapsack/discrete/knapsack_110_20.lp
\ Model knapsack_110_20
\ LP format - for model browsing. Use MPS format to capture full model detail.
\ Signature: 0x1c7a262dccd0e095
Minimize
  - 35 x[0] - 72 x[1] - 13 x[2] - 77 x[3] - 83 x[4] - 2 x[5] - 63 x[6]
   - 69 x[7] - 16 x[8] - 60 x[9] - 20 x[10] - 12 x[11] - 76 x[12]
   - 35 x[13] - 88 x[14] - 49 x[15] - 87 x[16] - 7 x[17] - 60 x[18]
   - 43 x[19] - 67 x[20] - 84 x[21] - 37 x[22] - 85 x[23] - 18 x[24]
   - 36 x[25] - 89 x[26] - 21 x[27] - 7 x[28] - 62 x[29] - 70 x[30]
   - 53 x[31] - 81 x[32] - 56 x[33] - 77 x[34] - 86 x[35] - 54 x[36]
   - 96 x[37] - 88 x[38] - 57 x[39] - 29 x[40] - 51 x[41] - 11 x[42]
   - 44 x[43] - 72 x[44] - 36 x[45] - 78 x[46] - 82 x[47] - 82 x[48]
   - 91 x[49] - 48 x[50] - 12 x[51] - 72 x[52] - 6 x[53] - 85 x[54]
   - 19 x[55] - 76 x[56] - 9 x[57] - 85 x[58] - 28 x[59] - 45 x[60]
   - 3 x[61] - 43 x[62] - 63 x[63] - 44 x[64] - 74 x[65] - 58 x[66]
   - 51 x[67] - 78 x[68] - 55 x[69] - 22 x[70] - 24 x[71] - 82 x[72]
   - 31 x[73] - 8 x[74] - 87 x[75] - 71 x[76] - 38 x[77] - 45 x[78]
   - 89 x[79] - 16 x[80] - 79 x[81] - 95 x[82] - 71 x[83] - 78 x[84]
   - 30 x[85] - 59 x[86] - 68 x[87] - x[88] - 20 x[89] - 95 x[90]
   - 11 x[91] - 11 x[92] - 26 x[93] - 77 x[94] - 60 x[95] - 10 x[96]
   - 65 x[97] - 58 x[98] - 86 x[99] - 98 x[100] - 47 x[101] - 84 x[102]
   - 75 x[103] - 28 x[104] - 88 x[105] - 71 x[106] - 18 x[107] - 51 x[108]
   - 90 x[109]
Subject To
 primal_upper: 37 x[0] + 37 x[1] + 55 x[2] + 12 x[3] + 5 x[4] + 7 x[5]
   + 54 x[6] + 17 x[7] + 30 x[8] + 3 x[9] + 85 x[10] + 56 x[11] + 5 x[12]
   + 93 x[13] + 94 x[14] + 90 x[15] + 78 x[16] + 69 x[17] + 78 x[18]
   + 31 x[19] + 58 x[20] + 37 x[21] + 49 x[22] + 16 x[23] + 38 x[24]
   + 97 x[25] + 91 x[26] + 21 x[27] + 15 x[28] + 68 x[29] + 47 x[30]
   + 89 x[31] + 65 x[32] + 54 x[33] + 41 x[34] + 18 x[35] + 77 x[36]
   + 10 x[37] + 93 x[38] + 48 x[39] + 68 x[40] + 19 x[41] + 15 x[42]
   + 55 x[43] + 4 x[44] + 28 x[45] + 91 x[46] + 51 x[47] + 8 x[48]
   + 57 x[49] + 60 x[50] + 57 x[51] + 58 x[52] + 77 x[53] + 30 x[54]
   + 13 x[55] + 86 x[56] + 52 x[57] + 29 x[58] + 15 x[59] + 54 x[60]
   + 64 x[61] + 77 x[62] + 4 x[63] + 73 x[64] + 69 x[65] + 94 x[66]
   + 12 x[67] + 17 x[68] + 75 x[69] + 67 x[70] + 51 x[71] + 95 x[72]
   + 92 x[73] + 61 x[74] + 78 x[75] + 52 x[76] + 48 x[77] + 94 x[78]
   + 52 x[79] + 15 x[80] + 91 x[81] + 64 x[82] + 67 x[83] + 79 x[84]
   + 27 x[85] + 85 x[86] + 57 x[87] + 43 x[88] + 80 x[89] + 2 x[90]
   + 34 x[91] + 30 x[92] + 33 x[93] + 49 x[94] + 30 x[95] + 50 x[96]
   + 66 x[97] + 73 x[98] + 49 x[99] + 50 x[100] + 93 x[101] + 55 x[102]
   + 89 x[103] + 62 x[104] + 87 x[105] + 60 x[106] + 12 x[107] + 60 x[108]
   + 94 x[109] + 3.7 r[0] + 3.7 r[1] + 5.5 r[2] + 1.2 r[3] + 0.5 r[4]
   + 0.7 r[5] + 5.4 r[6] + 1.7 r[7] + 3 r[8] + 0.3 r[9] + 8.5 r[10]
   + 5.6 r[11] + 0.5 r[12] + 9.3 r[13] + 9.4 r[14] + 9 r[15] + 7.8 r[16]
   + 6.9 r[17] + 7.8 r[18] + 3.1 r[19] + 5.8 r[20] + 3.7 r[21] + 4.9 r[22]
   + 1.6 r[23] + 3.8 r[24] + 9.7 r[25] + 9.1 r[26] + 2.1 r[27] + 1.5 r[28]
   + 6.8 r[29] + 4.7 r[30] + 8.9 r[31] + 6.5 r[32] + 5.4 r[33] + 4.1 r[34]
   + 1.8 r[35] + 7.7 r[36] + r[37] + 9.3 r[38] + 4.8 r[39] + 6.8 r[40]
   + 1.9 r[41] + 1.5 r[42] + 5.5 r[43] + 0.4 r[44] + 2.8 r[45] + 9.1 r[46]
   + 5.1 r[47] + 0.8 r[48] + 5.7 r[49] + 6 r[50] + 5.7 r[51] + 5.8 r[52]
   + 7.7 r[53] + 3 r[54] + 1.3 r[55] + 8.6 r[56] + 5.2 r[57] + 2.9 r[58]
   + 1.5 r[59] + 5.4 r[60] + 6.4 r[61] + 7.7 r[62] + 0.4 r[63] + 7.3 r[64]
   + 6.9 r[65] + 9.4 r[66] + 1.2 r[67] + 1.7 r[68] + 7.5 r[69] + 6.7 r[70]
   + 5.1 r[71] + 9.5 r[72] + 9.2 r[73] + 6.1 r[74] + 7.8 r[75] + 5.2 r[76]
   + 4.8 r[77] + 9.4 r[78] + 5.2 r[79] + 1.5 r[80] + 9.1 r[81] + 6.4 r[82]
   + 6.7 r[83] + 7.9 r[84] + 2.7 r[85] + 8.5 r[86] + 5.7 r[87] + 4.3 r[88]
   + 8 r[89] + 0.2 r[90] + 3.4 r[91] + 3 r[92] + 3.3 r[93] + 4.9 r[94]
   + 3 r[95] + 5 r[96] + 6.6 r[97] + 7.3 r[98] + 4.9 r[99] + 5 r[100]
   + 9.3 r[101] + 5.5 r[102] + 8.9 r[103] + 6.2 r[104] + 8.7 r[105]
   + 6 r[106] + 1.2 r[107] + 6 r[108] + 9.4 r[109] <= 548
 primal_lower: 1.591300672695423 x[0] + 1.316933797724038 x[1]
   + 1.876986635991893 x[2] + 2.855625716952405 x[3]
   + 4.194164319378776 x[4] + 3.251415165136914 x[5]
   + 3.823908982812297 x[6] + 1.18120843234713 x[7]
   + 4.341063421721106 x[8] + 0.5152382599186149 x[9]
   + 2.710800189651783 x[10] + 1.274438039372834 x[11]
   + 4.471090928122917 x[12] + 3.858213669524998 x[13]
   + 4.41332415106677 x[14] + 1.498267729629419 x[15]
   + 0.462579517010609 x[16] + 0.8162635730761753 x[17]
   + 3.229780338917925 x[18] + 3.609001000248204 x[19]
   + 2.333502825760097 x[20] + 2.423670793314703 x[21]
   + 2.847607031195381 x[22] + 0.0595386563917526 x[23]
   + 4.28625698844 x[24] + 0.3068927340763153 x[25]
   + 4.084001278256748 x[26] + 1.658486881855742 x[27]
   + 2.264606338306993 x[28] + 4.050274103922515 x[29]
   + 1.80837630284109 x[30] + 1.655199807921315 x[31]
   + 4.125115920773043 x[32] + 3.622933582343911 x[33]
   + 2.239985236207244 x[34] + 2.837996598259648 x[35]
   + 2.34950880131106 x[36] + 3.946177305974236 x[37]
   + 1.501860748264539 x[38] + 2.474366924186576 x[39]
   + 4.367781507874079 x[40] + 3.853170690367128 x[41]
   + 0.9944475460884149 x[42] + 0.8911700046148 x[43]
   + 4.286983618191091 x[44] + 3.568558932871789 x[45]
   + 2.848687422707532 x[46] + 4.253988495164789 x[47]
   + 4.072947108166912 x[48] + 4.456644014579823 x[49]
   + 3.755320363653873 x[50] + 0.0443104538726459 x[51]
   + 3.174344704335187 x[52] + 2.570997044238784 x[53]
   + 1.543391501601137 x[54] + 0.0908368479859826 x[55]
   + 2.96832653313003 x[56] + 3.190274161740753 x[57]
   + 2.880231855212814 x[58] + 2.287606584167026 x[59]
   + 3.534081436429792 x[60] + 2.931775969522032 x[61]
   + 4.467333863559696 x[62] + 2.08947217481498 x[63]
   + 0.824558414214712 x[64] + 1.743845925863459 x[65]
   + 2.304127785677962 x[66] + 4.171559269486147 x[67]
   + 1.426957648542345 x[68] + 2.158469155462114 x[69]
   + 1.672257428084882 x[70] + 1.788598568450077 x[71]
   + 2.515813933157266 x[72] + 0.3860008879075906 x[73]
   + 2.631079126379596 x[74] + 0.7339561290443832 x[75]
   + 3.570785597431102 x[76] + 2.291923403227974 x[77]
   + 0.0552025916511401 x[78] + 4.086811730732028 x[79]
   + 2.878507863600746 x[80] + 2.768258858865823 x[81]
   + 2.218597970395936 x[82] + 1.922119395672547 x[83]
   + 0.3850565540307291 x[84] + 3.095265509808995 x[85]
   + 2.5262590199597 x[86] + 3.93985731531148 x[87]
   + 4.369604664447054 x[88] + 1.714597819318873 x[89]
   + 1.308800568412648 x[90] + 1.420213468286833 x[91]
   + 0.3134212212251826 x[92] + 0.3657677680541855 x[93]
   + 0.1445456403353222 x[94] + 4.243778249402689 x[95]
   + 3.99110505432238 x[96] + 0.3192477311299355 x[97]
   + 2.03937479645192 x[98] + 0.1527693309740632 x[99]
   + 4.375916308208428 x[100] + 1.53109885128899 x[101]
   + 3.962748362695773 x[102] + 0.2272581461120472 x[103]
   + 4.480289375809294 x[104] + 0.5228573563548687 x[105]
   + 4.09037283073099 x[106] + 3.108923306152651 x[107]
   + 2.526873936014235 x[108] + 3.323250128122914 x[109] + 85 u[0]
   + 81 u[1] + 83 u[2] + 96 u[3] + 81 u[4] + 39 u[5] + 74 u[6] + 77 u[7]
   + 62 u[8] + 3 u[9] + 5 u[10] + 48 u[11] + 73 u[12] + 77 u[13] + 86 u[14]
   + 2 u[15] + 22 u[16] + 49 u[17] + 14 u[18] + 91 u[19] + 66 u[20]
   + 81 u[21] + 13 u[22] + 64 u[23] + 82 u[24] + 17 u[25] + 51 u[26]
   + 97 u[27] + 23 u[28] + 56 u[29] + 7 u[30] + 5 u[31] + 9 u[32]
   + 78 u[33] + 33 u[34] + 90 u[35] + 57 u[36] + 26 u[37] + 9 u[38]
   + 16 u[39] + 72 u[40] + 31 u[41] + 3 u[42] + 7 u[43] + 96 u[44]
   + 44 u[45] + 75 u[46] + 47 u[47] + 72 u[48] + 85 u[49] + 60 u[50]
   + 17 u[51] + 46 u[52] + 69 u[53] + 78 u[54] + 17 u[55] + 34 u[56]
   + 24 u[57] + 65 u[58] + 59 u[59] + 18 u[60] + 68 u[61] + 45 u[62]
   + 8 u[63] + u[64] + u[65] + 62 u[66] + 12 u[67] + 53 u[68] + 11 u[69]
   + 75 u[70] + 19 u[71] + 87 u[72] + 16 u[73] + 25 u[74] + 74 u[75]
   + 24 u[76] + 44 u[77] + 6 u[78] + 72 u[79] + 27 u[80] + 99 u[81]
   + 56 u[82] + 39 u[83] + 31 u[84] + 55 u[85] + 53 u[86] + 33 u[87]
   + 35 u[88] + 76 u[89] + 14 u[90] + 18 u[91] + 54 u[92] + u[93]
   + 53 u[94] + 62 u[95] + 94 u[96] + 98 u[97] + 61 u[98] + 57 u[99]
   + 66 u[100] + u[101] + 59 u[102] + 29 u[103] + 90 u[104] + 11 u[105]
   + 12 u[106] + 36 u[107] + 48 u[108] + 62 u[109] <= 59412
 mccormick1[0]: - u[0] + r[0] <= 0
 mccormick1[1]: - u[1] + r[1] <= 0
 mccormick1[2]: - u[2] + r[2] <= 0
 mccormick1[3]: - u[3] + r[3] <= 0
 mccormick1[4]: - u[4] + r[4] <= 0
 mccormick1[5]: - u[5] + r[5] <= 0
 mccormick1[6]: - u[6] + r[6] <= 0
 mccormick1[7]: - u[7] + r[7] <= 0
 mccormick1[8]: - u[8] + r[8] <= 0
 mccormick1[9]: - u[9] + r[9] <= 0
 mccormick1[10]: - u[10] + r[10] <= 0
 mccormick1[11]: - u[11] + r[11] <= 0
 mccormick1[12]: - u[12] + r[12] <= 0
 mccormick1[13]: - u[13] + r[13] <= 0
 mccormick1[14]: - u[14] + r[14] <= 0
 mccormick1[15]: - u[15] + r[15] <= 0
 mccormick1[16]: - u[16] + r[16] <= 0
 mccormick1[17]: - u[17] + r[17] <= 0
 mccormick1[18]: - u[18] + r[18] <= 0
 mccormick1[19]: - u[19] + r[19] <= 0
 mccormick1[20]: - u[20] + r[20] <= 0
 mccormick1[21]: - u[21] + r[21] <= 0
 mccormick1[22]: - u[22] + r[22] <= 0
 mccormick1[23]: - u[23] + r[23] <= 0
 mccormick1[24]: - u[24] + r[24] <= 0
 mccormick1[25]: - u[25] + r[25] <= 0
 mccormick1[26]: - u[26] + r[26] <= 0
 mccormick1[27]: - u[27] + r[27] <= 0
 mccormick1[28]: - u[28] + r[28] <= 0
 mccormick1[29]: - u[29] + r[29] <= 0
 mccormick1[30]: - u[30] + r[30] <= 0
 mccormick1[31]: - u[31] + r[31] <= 0
 mccormick1[32]: - u[32] + r[32] <= 0
 mccormick1[33]: - u[33] + r[33] <= 0
 mccormick1[34]: - u[34] + r[34] <= 0
 mccormick1[35]: - u[35] + r[35] <= 0
 mccormick1[36]: - u[36] + r[36] <= 0
 mccormick1[37]: - u[37] + r[37] <= 0
 mccormick1[38]: - u[38] + r[38] <= 0
 mccormick1[39]: - u[39] + r[39] <= 0
 mccormick1[40]: - u[40] + r[40] <= 0
 mccormick1[41]: - u[41] + r[41] <= 0
 mccormick1[42]: - u[42] + r[42] <= 0
 mccormick1[43]: - u[43] + r[43] <= 0
 mccormick1[44]: - u[44] + r[44] <= 0
 mccormick1[45]: - u[45] + r[45] <= 0
 mccormick1[46]: - u[46] + r[46] <= 0
 mccormick1[47]: - u[47] + r[47] <= 0
 mccormick1[48]: - u[48] + r[48] <= 0
 mccormick1[49]: - u[49] + r[49] <= 0
 mccormick1[50]: - u[50] + r[50] <= 0
 mccormick1[51]: - u[51] + r[51] <= 0
 mccormick1[52]: - u[52] + r[52] <= 0
 mccormick1[53]: - u[53] + r[53] <= 0
 mccormick1[54]: - u[54] + r[54] <= 0
 mccormick1[55]: - u[55] + r[55] <= 0
 mccormick1[56]: - u[56] + r[56] <= 0
 mccormick1[57]: - u[57] + r[57] <= 0
 mccormick1[58]: - u[58] + r[58] <= 0
 mccormick1[59]: - u[59] + r[59] <= 0
 mccormick1[60]: - u[60] + r[60] <= 0
 mccormick1[61]: - u[61] + r[61] <= 0
 mccormick1[62]: - u[62] + r[62] <= 0
 mccormick1[63]: - u[63] + r[63] <= 0
 mccormick1[64]: - u[64] + r[64] <= 0
 mccormick1[65]: - u[65] + r[65] <= 0
 mccormick1[66]: - u[66] + r[66] <= 0
 mccormick1[67]: - u[67] + r[67] <= 0
 mccormick1[68]: - u[68] + r[68] <= 0
 mccormick1[69]: - u[69] + r[69] <= 0
 mccormick1[70]: - u[70] + r[70] <= 0
 mccormick1[71]: - u[71] + r[71] <= 0
 mccormick1[72]: - u[72] + r[72] <= 0
 mccormick1[73]: - u[73] + r[73] <= 0
 mccormick1[74]: - u[74] + r[74] <= 0
 mccormick1[75]: - u[75] + r[75] <= 0
 mccormick1[76]: - u[76] + r[76] <= 0
 mccormick1[77]: - u[77] + r[77] <= 0
 mccormick1[78]: - u[78] + r[78] <= 0
 mccormick1[79]: - u[79] + r[79] <= 0
 mccormick1[80]: - u[80] + r[80] <= 0
 mccormick1[81]: - u[81] + r[81] <= 0
 mccormick1[82]: - u[82] + r[82] <= 0
 mccormick1[83]: - u[83] + r[83] <= 0
 mccormick1[84]: - u[84] + r[84] <= 0
 mccormick1[85]: - u[85] + r[85] <= 0
 mccormick1[86]: - u[86] + r[86] <= 0
 mccormick1[87]: - u[87] + r[87] <= 0
 mccormick1[88]: - u[88] + r[88] <= 0
 mccormick1[89]: - u[89] + r[89] <= 0
 mccormick1[90]: - u[90] + r[90] <= 0
 mccormick1[91]: - u[91] + r[91] <= 0
 mccormick1[92]: - u[92] + r[92] <= 0
 mccormick1[93]: - u[93] + r[93] <= 0
 mccormick1[94]: - u[94] + r[94] <= 0
 mccormick1[95]: - u[95] + r[95] <= 0
 mccormick1[96]: - u[96] + r[96] <= 0
 mccormick1[97]: - u[97] + r[97] <= 0
 mccormick1[98]: - u[98] + r[98] <= 0
 mccormick1[99]: - u[99] + r[99] <= 0
 mccormick1[100]: - u[100] + r[100] <= 0
 mccormick1[101]: - u[101] + r[101] <= 0
 mccormick1[102]: - u[102] + r[102] <= 0
 mccormick1[103]: - u[103] + r[103] <= 0
 mccormick1[104]: - u[104] + r[104] <= 0
 mccormick1[105]: - u[105] + r[105] <= 0
 mccormick1[106]: - u[106] + r[106] <= 0
 mccormick1[107]: - u[107] + r[107] <= 0
 mccormick1[108]: - u[108] + r[108] <= 0
 mccormick1[109]: - u[109] + r[109] <= 0
 mccormick2[0]: - x[0] + r[0] <= 0
 mccormick2[1]: - x[1] + r[1] <= 0
 mccormick2[2]: - x[2] + r[2] <= 0
 mccormick2[3]: - x[3] + r[3] <= 0
 mccormick2[4]: - x[4] + r[4] <= 0
 mccormick2[5]: - x[5] + r[5] <= 0
 mccormick2[6]: - x[6] + r[6] <= 0
 mccormick2[7]: - x[7] + r[7] <= 0
 mccormick2[8]: - x[8] + r[8] <= 0
 mccormick2[9]: - x[9] + r[9] <= 0
 mccormick2[10]: - x[10] + r[10] <= 0
 mccormick2[11]: - x[11] + r[11] <= 0
 mccormick2[12]: - x[12] + r[12] <= 0
 mccormick2[13]: - x[13] + r[13] <= 0
 mccormick2[14]: - x[14] + r[14] <= 0
 mccormick2[15]: - x[15] + r[15] <= 0
 mccormick2[16]: - x[16] + r[16] <= 0
 mccormick2[17]: - x[17] + r[17] <= 0
 mccormick2[18]: - x[18] + r[18] <= 0
 mccormick2[19]: - x[19] + r[19] <= 0
 mccormick2[20]: - x[20] + r[20] <= 0
 mccormick2[21]: - x[21] + r[21] <= 0
 mccormick2[22]: - x[22] + r[22] <= 0
 mccormick2[23]: - x[23] + r[23] <= 0
 mccormick2[24]: - x[24] + r[24] <= 0
 mccormick2[25]: - x[25] + r[25] <= 0
 mccormick2[26]: - x[26] + r[26] <= 0
 mccormick2[27]: - x[27] + r[27] <= 0
 mccormick2[28]: - x[28] + r[28] <= 0
 mccormick2[29]: - x[29] + r[29] <= 0
 mccormick2[30]: - x[30] + r[30] <= 0
 mccormick2[31]: - x[31] + r[31] <= 0
 mccormick2[32]: - x[32] + r[32] <= 0
 mccormick2[33]: - x[33] + r[33] <= 0
 mccormick2[34]: - x[34] + r[34] <= 0
 mccormick2[35]: - x[35] + r[35] <= 0
 mccormick2[36]: - x[36] + r[36] <= 0
 mccormick2[37]: - x[37] + r[37] <= 0
 mccormick2[38]: - x[38] + r[38] <= 0
 mccormick2[39]: - x[39] + r[39] <= 0
 mccormick2[40]: - x[40] + r[40] <= 0
 mccormick2[41]: - x[41] + r[41] <= 0
 mccormick2[42]: - x[42] + r[42] <= 0
 mccormick2[43]: - x[43] + r[43] <= 0
 mccormick2[44]: - x[44] + r[44] <= 0
 mccormick2[45]: - x[45] + r[45] <= 0
 mccormick2[46]: - x[46] + r[46] <= 0
 mccormick2[47]: - x[47] + r[47] <= 0
 mccormick2[48]: - x[48] + r[48] <= 0
 mccormick2[49]: - x[49] + r[49] <= 0
 mccormick2[50]: - x[50] + r[50] <= 0
 mccormick2[51]: - x[51] + r[51] <= 0
 mccormick2[52]: - x[52] + r[52] <= 0
 mccormick2[53]: - x[53] + r[53] <= 0
 mccormick2[54]: - x[54] + r[54] <= 0
 mccormick2[55]: - x[55] + r[55] <= 0
 mccormick2[56]: - x[56] + r[56] <= 0
 mccormick2[57]: - x[57] + r[57] <= 0
 mccormick2[58]: - x[58] + r[58] <= 0
 mccormick2[59]: - x[59] + r[59] <= 0
 mccormick2[60]: - x[60] + r[60] <= 0
 mccormick2[61]: - x[61] + r[61] <= 0
 mccormick2[62]: - x[62] + r[62] <= 0
 mccormick2[63]: - x[63] + r[63] <= 0
 mccormick2[64]: - x[64] + r[64] <= 0
 mccormick2[65]: - x[65] + r[65] <= 0
 mccormick2[66]: - x[66] + r[66] <= 0
 mccormick2[67]: - x[67] + r[67] <= 0
 mccormick2[68]: - x[68] + r[68] <= 0
 mccormick2[69]: - x[69] + r[69] <= 0
 mccormick2[70]: - x[70] + r[70] <= 0
 mccormick2[71]: - x[71] + r[71] <= 0
 mccormick2[72]: - x[72] + r[72] <= 0
 mccormick2[73]: - x[73] + r[73] <= 0
 mccormick2[74]: - x[74] + r[74] <= 0
 mccormick2[75]: - x[75] + r[75] <= 0
 mccormick2[76]: - x[76] + r[76] <= 0
 mccormick2[77]: - x[77] + r[77] <= 0
 mccormick2[78]: - x[78] + r[78] <= 0
 mccormick2[79]: - x[79] + r[79] <= 0
 mccormick2[80]: - x[80] + r[80] <= 0
 mccormick2[81]: - x[81] + r[81] <= 0
 mccormick2[82]: - x[82] + r[82] <= 0
 mccormick2[83]: - x[83] + r[83] <= 0
 mccormick2[84]: - x[84] + r[84] <= 0
 mccormick2[85]: - x[85] + r[85] <= 0
 mccormick2[86]: - x[86] + r[86] <= 0
 mccormick2[87]: - x[87] + r[87] <= 0
 mccormick2[88]: - x[88] + r[88] <= 0
 mccormick2[89]: - x[89] + r[89] <= 0
 mccormick2[90]: - x[90] + r[90] <= 0
 mccormick2[91]: - x[91] + r[91] <= 0
 mccormick2[92]: - x[92] + r[92] <= 0
 mccormick2[93]: - x[93] + r[93] <= 0
 mccormick2[94]: - x[94] + r[94] <= 0
 mccormick2[95]: - x[95] + r[95] <= 0
 mccormick2[96]: - x[96] + r[96] <= 0
 mccormick2[97]: - x[97] + r[97] <= 0
 mccormick2[98]: - x[98] + r[98] <= 0
 mccormick2[99]: - x[99] + r[99] <= 0
 mccormick2[100]: - x[100] + r[100] <= 0
 mccormick2[101]: - x[101] + r[101] <= 0
 mccormick2[102]: - x[102] + r[102] <= 0
 mccormick2[103]: - x[103] + r[103] <= 0
 mccormick2[104]: - x[104] + r[104] <= 0
 mccormick2[105]: - x[105] + r[105] <= 0
 mccormick2[106]: - x[106] + r[106] <= 0
 mccormick2[107]: - x[107] + r[107] <= 0
 mccormick2[108]: - x[108] + r[108] <= 0
 mccormick2[109]: - x[109] + r[109] <= 0
 mccormick3[0]: x[0] + u[0] - r[0] <= 1
 mccormick3[1]: x[1] + u[1] - r[1] <= 1
 mccormick3[2]: x[2] + u[2] - r[2] <= 1
 mccormick3[3]: x[3] + u[3] - r[3] <= 1
 mccormick3[4]: x[4] + u[4] - r[4] <= 1
 mccormick3[5]: x[5] + u[5] - r[5] <= 1
 mccormick3[6]: x[6] + u[6] - r[6] <= 1
 mccormick3[7]: x[7] + u[7] - r[7] <= 1
 mccormick3[8]: x[8] + u[8] - r[8] <= 1
 mccormick3[9]: x[9] + u[9] - r[9] <= 1
 mccormick3[10]: x[10] + u[10] - r[10] <= 1
 mccormick3[11]: x[11] + u[11] - r[11] <= 1
 mccormick3[12]: x[12] + u[12] - r[12] <= 1
 mccormick3[13]: x[13] + u[13] - r[13] <= 1
 mccormick3[14]: x[14] + u[14] - r[14] <= 1
 mccormick3[15]: x[15] + u[15] - r[15] <= 1
 mccormick3[16]: x[16] + u[16] - r[16] <= 1
 mccormick3[17]: x[17] + u[17] - r[17] <= 1
 mccormick3[18]: x[18] + u[18] - r[18] <= 1
 mccormick3[19]: x[19] + u[19] - r[19] <= 1
 mccormick3[20]: x[20] + u[20] - r[20] <= 1
 mccormick3[21]: x[21] + u[21] - r[21] <= 1
 mccormick3[22]: x[22] + u[22] - r[22] <= 1
 mccormick3[23]: x[23] + u[23] - r[23] <= 1
 mccormick3[24]: x[24] + u[24] - r[24] <= 1
 mccormick3[25]: x[25] + u[25] - r[25] <= 1
 mccormick3[26]: x[26] + u[26] - r[26] <= 1
 mccormick3[27]: x[27] + u[27] - r[27] <= 1
 mccormick3[28]: x[28] + u[28] - r[28] <= 1
 mccormick3[29]: x[29] + u[29] - r[29] <= 1
 mccormick3[30]: x[30] + u[30] - r[30] <= 1
 mccormick3[31]: x[31] + u[31] - r[31] <= 1
 mccormick3[32]: x[32] + u[32] - r[32] <= 1
 mccormick3[33]: x[33] + u[33] - r[33] <= 1
 mccormick3[34]: x[34] + u[34] - r[34] <= 1
 mccormick3[35]: x[35] + u[35] - r[35] <= 1
 mccormick3[36]: x[36] + u[36] - r[36] <= 1
 mccormick3[37]: x[37] + u[37] - r[37] <= 1
 mccormick3[38]: x[38] + u[38] - r[38] <= 1
 mccormick3[39]: x[39] + u[39] - r[39] <= 1
 mccormick3[40]: x[40] + u[40] - r[40] <= 1
 mccormick3[41]: x[41] + u[41] - r[41] <= 1
 mccormick3[42]: x[42] + u[42] - r[42] <= 1
 mccormick3[43]: x[43] + u[43] - r[43] <= 1
 mccormick3[44]: x[44] + u[44] - r[44] <= 1
 mccormick3[45]: x[45] + u[45] - r[45] <= 1
 mccormick3[46]: x[46] + u[46] - r[46] <= 1
 mccormick3[47]: x[47] + u[47] - r[47] <= 1
 mccormick3[48]: x[48] + u[48] - r[48] <= 1
 mccormick3[49]: x[49] + u[49] - r[49] <= 1
 mccormick3[50]: x[50] + u[50] - r[50] <= 1
 mccormick3[51]: x[51] + u[51] - r[51] <= 1
 mccormick3[52]: x[52] + u[52] - r[52] <= 1
 mccormick3[53]: x[53] + u[53] - r[53] <= 1
 mccormick3[54]: x[54] + u[54] - r[54] <= 1
 mccormick3[55]: x[55] + u[55] - r[55] <= 1
 mccormick3[56]: x[56] + u[56] - r[56] <= 1
 mccormick3[57]: x[57] + u[57] - r[57] <= 1
 mccormick3[58]: x[58] + u[58] - r[58] <= 1
 mccormick3[59]: x[59] + u[59] - r[59] <= 1
 mccormick3[60]: x[60] + u[60] - r[60] <= 1
 mccormick3[61]: x[61] + u[61] - r[61] <= 1
 mccormick3[62]: x[62] + u[62] - r[62] <= 1
 mccormick3[63]: x[63] + u[63] - r[63] <= 1
 mccormick3[64]: x[64] + u[64] - r[64] <= 1
 mccormick3[65]: x[65] + u[65] - r[65] <= 1
 mccormick3[66]: x[66] + u[66] - r[66] <= 1
 mccormick3[67]: x[67] + u[67] - r[67] <= 1
 mccormick3[68]: x[68] + u[68] - r[68] <= 1
 mccormick3[69]: x[69] + u[69] - r[69] <= 1
 mccormick3[70]: x[70] + u[70] - r[70] <= 1
 mccormick3[71]: x[71] + u[71] - r[71] <= 1
 mccormick3[72]: x[72] + u[72] - r[72] <= 1
 mccormick3[73]: x[73] + u[73] - r[73] <= 1
 mccormick3[74]: x[74] + u[74] - r[74] <= 1
 mccormick3[75]: x[75] + u[75] - r[75] <= 1
 mccormick3[76]: x[76] + u[76] - r[76] <= 1
 mccormick3[77]: x[77] + u[77] - r[77] <= 1
 mccormick3[78]: x[78] + u[78] - r[78] <= 1
 mccormick3[79]: x[79] + u[79] - r[79] <= 1
 mccormick3[80]: x[80] + u[80] - r[80] <= 1
 mccormick3[81]: x[81] + u[81] - r[81] <= 1
 mccormick3[82]: x[82] + u[82] - r[82] <= 1
 mccormick3[83]: x[83] + u[83] - r[83] <= 1
 mccormick3[84]: x[84] + u[84] - r[84] <= 1
 mccormick3[85]: x[85] + u[85] - r[85] <= 1
 mccormick3[86]: x[86] + u[86] - r[86] <= 1
 mccormick3[87]: x[87] + u[87] - r[87] <= 1
 mccormick3[88]: x[88] + u[88] - r[88] <= 1
 mccormick3[89]: x[89] + u[89] - r[89] <= 1
 mccormick3[90]: x[90] + u[90] - r[90] <= 1
 mccormick3[91]: x[91] + u[91] - r[91] <= 1
 mccormick3[92]: x[92] + u[92] - r[92] <= 1
 mccormick3[93]: x[93] + u[93] - r[93] <= 1
 mccormick3[94]: x[94] + u[94] - r[94] <= 1
 mccormick3[95]: x[95] + u[95] - r[95] <= 1
 mccormick3[96]: x[96] + u[96] - r[96] <= 1
 mccormick3[97]: x[97] + u[97] - r[97] <= 1
 mccormick3[98]: x[98] + u[98] - r[98] <= 1
 mccormick3[99]: x[99] + u[99] - r[99] <= 1
 mccormick3[100]: x[100] + u[100] - r[100] <= 1
 mccormick3[101]: x[101] + u[101] - r[101] <= 1
 mccormick3[102]: x[102] + u[102] - r[102] <= 1
 mccormick3[103]: x[103] + u[103] - r[103] <= 1
 mccormick3[104]: x[104] + u[104] - r[104] <= 1
 mccormick3[105]: x[105] + u[105] - r[105] <= 1
 mccormick3[106]: x[106] + u[106] - r[106] <= 1
 mccormick3[107]: x[107] + u[107] - r[107] <= 1
 mccormick3[108]: x[108] + u[108] - r[108] <= 1
 mccormick3[109]: x[109] + u[109] - r[109] <= 1
Bounds
Binaries
 x[0] x[1] x[2] x[3] x[4] x[5] x[6] x[7] x[8] x[9] x[10] x[11] x[12] x[13]
 x[14] x[15] x[16] x[17] x[18] x[19] x[20] x[21] x[22] x[23] x[24] x[25]
 x[26] x[27] x[28] x[29] x[30] x[31] x[32] x[33] x[34] x[35] x[36] x[37]
 x[38] x[39] x[40] x[41] x[42] x[43] x[44] x[45] x[46] x[47] x[48] x[49]
 x[50] x[51] x[52] x[53] x[54] x[55] x[56] x[57] x[58] x[59] x[60] x[61]
 x[62] x[63] x[64] x[65] x[66] x[67] x[68] x[69] x[70] x[71] x[72] x[73]
 x[74] x[75] x[76] x[77] x[78] x[79] x[80] x[81] x[82] x[83] x[84] x[85]
 x[86] x[87] x[88] x[89] x[90] x[91] x[92] x[93] x[94] x[95] x[96] x[97]
 x[98] x[99] x[100] x[101] x[102] x[103] x[104] x[105] x[106] x[107] x[108]
 x[109] u[0] u[1] u[2] u[3] u[4] u[5] u[6] u[7] u[8] u[9] u[10] u[11] u[12]
 u[13] u[14] u[15] u[16] u[17] u[18] u[19] u[20] u[21] u[22] u[23] u[24]
 u[25] u[26] u[27] u[28] u[29] u[30] u[31] u[32] u[33] u[34] u[35] u[36]
 u[37] u[38] u[39] u[40] u[41] u[42] u[43] u[44] u[45] u[46] u[47] u[48]
 u[49] u[50] u[51] u[52] u[53] u[54] u[55] u[56] u[57] u[58] u[59] u[60]
 u[61] u[62] u[63] u[64] u[65] u[66] u[67] u[68] u[69] u[70] u[71] u[72]
 u[73] u[74] u[75] u[76] u[77] u[78] u[79] u[80] u[81] u[82] u[83] u[84]
 u[85] u[86] u[87] u[88] u[89] u[90] u[91] u[92] u[93] u[94] u[95] u[96]
 u[97] u[98] u[99] u[100] u[101] u[102] u[103] u[104] u[105] u[106] u[107]
 u[108] u[109] r[0] r[1] r[2] r[3] r[4] r[5] r[6] r[7] r[8] r[9] r[10]
 r[11] r[12] r[13] r[14] r[15] r[16] r[17] r[18] r[19] r[20] r[21] r[22]
 r[23] r[24] r[25] r[26] r[27] r[28] r[29] r[30] r[31] r[32] r[33] r[34]
 r[35] r[36] r[37] r[38] r[39] r[40] r[41] r[42] r[43] r[44] r[45] r[46]
 r[47] r[48] r[49] r[50] r[51] r[52] r[53] r[54] r[55] r[56] r[57] r[58]
 r[59] r[60] r[61] r[62] r[63] r[64] r[65] r[66] r[67] r[68] r[69] r[70]
 r[71] r[72] r[73] r[74] r[75] r[76] r[77] r[78] r[79] r[80] r[81] r[82]
 r[83] r[84] r[85] r[86] r[87] r[88] r[89] r[90] r[91] r[92] r[93] r[94]
 r[95] r[96] r[97] r[98] r[99] r[100] r[101] r[102] r[103] r[104] r[105]
 r[106] r[107] r[108] r[109]
End
