instances/knapsack/discrete/knapsack_110_20.kp
32204
110
548

37 3.7 35
37 3.7 72
55 5.5 13
12 1.2 77
5 0.5 83
7 0.7 2
54 5.4 63
17 1.7 69
30 3.0 16
3 0.3 60
85 8.5 20
56 5.6 12
5 0.5 76
93 9.3 35
94 9.4 88
90 9.0 49
78 7.8 87
69 6.9 7
78 7.8 60
31 3.1 43
58 5.8 67
37 3.7 84
49 4.9 37
16 1.6 85
38 3.8 18
97 9.7 36
91 9.1 89
21 2.1 21
15 1.5 7
68 6.8 62
47 4.7 70
89 8.9 53
65 6.5 81
54 5.4 56
41 4.1 77
18 1.8 86
77 7.7 54
10 1.0 96
93 9.3 88
48 4.8 57
68 6.8 29
19 1.9 51
15 1.5 11
55 5.5 44
4 0.4 72
28 2.8 36
91 9.1 78
51 5.1 82
8 0.8 82
57 5.7 91
60 6.0 48
57 5.7 12
58 5.8 72
77 7.7 6
30 3.0 85
13 1.3 19
86 8.6 76
52 5.2 9
29 2.9 85
15 1.5 28
54 5.4 45
64 6.4 3
77 7.7 43
4 0.4 63
73 7.3 44
69 6.9 74
94 9.4 58
12 1.2 51
17 1.7 78
75 7.5 55
67 6.7 22
51 5.1 24
95 9.5 82
92 9.2 31
61 6.1 8
78 7.8 87
52 5.2 71
48 4.8 38
94 9.4 45
52 5.2 89
15 1.5 16
91 9.1 79
64 6.4 95
67 6.7 71
79 7.9 78
27 2.7 30
85 8.5 59
57 5.7 68
43 4.3 1
80 8.0 20
2 0.2 95
34 3.4 11
30 3.0 11
33 3.3 26
49 4.9 77
30 3.0 60
50 5.0 10
66 6.6 65
73 7.3 58
49 4.9 86
50 5.0 98
93 9.3 47
55 5.5 84
89 8.9 75
62 6.2 28
87 8.7 88
60 6.0 71
12 1.2 18
60 6.0 51
94 9.4 90

59412
493

[1.5913006726954233 1.3169337977240378 1.8769866359918927 2.8556257169524053 4.194164319378776 3.2514151651369136 3.823908982812297 1.18120843234713 4.341063421721106 0.5152382599186149 2.710800189651783 1.2744380393728336 4.4710909281229165 3.858213669524998 4.41332415106677 1.4982677296294193 0.46257951701060895 0.8162635730761753 3.229780338917925 3.6090010002482042 2.333502825760097 2.423670793314703 2.8476070311953805 0.059538656391752647 4.28625698844 0.30689273407631534 4.084001278256748 1.6584868818557417 2.2646063383069928 4.050274103922515 1.8083763028410897 1.6551998079213148 4.125115920773043 3.622933582343911 2.2399852362072443 2.8379965982596476 2.34950880131106 3.946177305974236 1.5018607482645392 2.4743669241865756 4.367781507874079 3.8531706903671283 0.9944475460884149 0.8911700046148 4.286983618191091 3.5685589328717886 2.8486874227075316 4.253988495164789 4.072947108166912 4.456644014579823 3.7553203636538735 0.04431045387264588 3.174344704335187 2.570997044238784 1.5433915016011375 0.09083684798598263 2.96832653313003 3.1902741617407533 2.8802318552128137 2.2876065841670257 3.534081436429792 2.931775969522032 4.467333863559696 2.08947217481498 0.824558414214712 1.7438459258634587 2.304127785677962 4.171559269486147 1.426957648542345 2.1584691554621145 1.6722574280848816 1.7885985684500767 2.515813933157266 0.38600088790759063 2.631079126379596 0.7339561290443832 3.5707855974311022 2.2919234032279743 0.05520259165114009 4.086811730732028 2.8785078636007455 2.7682588588658232 2.218597970395936 1.922119395672547 0.38505655403072914 3.0952655098089945 2.5262590199596997 3.9398573153114804 4.369604664447054 1.714597819318873 1.3088005684126482 1.4202134682868326 0.3134212212251826 0.36576776805418554 0.14454564033532216 4.2437782494026886 3.99110505432238 0.3192477311299355 2.0393747964519204 0.15276933097406317 4.375916308208428 1.5310988512889896 3.962748362695773 0.22725814611204717 4.480289375809294 0.5228573563548687 4.09037283073099 3.108923306152651 2.526873936014235 3.323250128122914]

[85 81 83 96 81 39 74 77 62 3 5 48 73 77 86 2 22 49 14 91 66 81 13 64 82 17 51 97 23 56 7 5 9 78 33 90 57 26 9 16 72 31 3 7 96 44 75 47 72 85 60 17 46 69 78 17 34 24 65 59 18 68 45 8 1 1 62 12 53 11 75 19 87 16 25 74 24 44 6 72 27 99 56 39 31 55 53 33 35 76 14 18 54 1 53 62 94 98 61 57 66 1 59 29 90 11 12 36 48 62]
